p edge 80 480
e 1 7
e 1 16
e 1 24
e 1 34
e 1 36
e 1 58
e 2 10
e 2 13
e 2 27
e 2 28
e 2 43
e 2 62
e 3 4
e 3 7
e 3 51
e 3 60
e 3 61
e 3 67
e 4 8
e 4 9
e 4 12
e 4 30
e 4 53
e 4 57
e 5 4
e 5 11
e 5 16
e 5 23
e 5 63
e 5 68
e 6 8
e 6 10
e 6 19
e 6 23
e 6 30
e 6 43
e 7 14
e 7 34
e 7 43
e 7 52
e 7 57
e 7 70
e 8 5
e 8 22
e 8 25
e 8 40
e 8 58
e 8 79
e 9 7
e 9 12
e 9 14
e 9 21
e 9 51
e 9 76
e 10 2
e 10 34
e 10 37
e 10 37
e 10 51
e 10 63
e 11 8
e 11 17
e 11 26
e 11 45
e 11 46
e 11 66
e 12 18
e 12 34
e 12 45
e 12 47
e 12 50
e 12 56
e 13 8
e 13 15
e 13 45
e 13 63
e 13 66
e 13 75
e 14 9
e 14 44
e 14 48
e 14 59
e 14 71
e 14 77
e 15 12
e 15 29
e 15 35
e 15 44
e 15 65
e 15 80
e 16 9
e 16 13
e 16 13
e 16 21
e 16 60
e 16 77
e 17 11
e 17 15
e 17 20
e 17 27
e 17 67
e 17 76
e 18 23
e 18 28
e 18 38
e 18 42
e 18 59
e 18 75
e 19 13
e 19 13
e 19 22
e 19 37
e 19 41
e 19 47
e 20 2
e 20 10
e 20 26
e 20 41
e 20 45
e 20 60
e 21 2
e 21 10
e 21 12
e 21 18
e 21 32
e 21 38
e 22 8
e 22 17
e 22 36
e 22 48
e 22 58
e 22 70
e 23 6
e 23 27
e 23 27
e 23 34
e 23 44
e 23 60
e 24 9
e 24 30
e 24 53
e 24 64
e 24 65
e 24 72
e 25 9
e 25 20
e 25 21
e 25 29
e 25 31
e 25 76
e 26 4
e 26 6
e 26 37
e 26 47
e 26 59
e 26 70
e 27 5
e 27 12
e 27 36
e 27 42
e 27 49
e 27 60
e 28 2
e 28 31
e 28 61
e 28 69
e 28 74
e 28 75
e 29 5
e 29 17
e 29 28
e 29 35
e 29 45
e 29 64
e 30 12
e 30 17
e 30 20
e 30 46
e 30 68
e 30 73
e 31 29
e 31 35
e 31 38
e 31 48
e 31 72
e 31 76
e 32 30
e 32 38
e 32 42
e 32 59
e 32 76
e 32 76
e 33 9
e 33 29
e 33 34
e 33 52
e 33 59
e 33 64
e 34 4
e 34 5
e 34 10
e 34 44
e 34 54
e 34 57
e 35 9
e 35 19
e 35 25
e 35 41
e 35 47
e 35 59
e 36 10
e 36 37
e 36 45
e 36 49
e 36 78
e 36 78
e 37 11
e 37 13
e 37 24
e 37 31
e 37 60
e 37 64
e 38 6
e 38 45
e 38 60
e 38 66
e 38 71
e 38 75
e 39 3
e 39 27
e 39 38
e 39 63
e 39 65
e 39 70
e 40 5
e 40 23
e 40 29
e 40 52
e 40 68
e 40 76
e 41 20
e 41 21
e 41 49
e 41 64
e 41 67
e 41 69
e 42 6
e 42 32
e 42 51
e 42 51
e 42 62
e 42 63
e 43 5
e 43 17
e 43 26
e 43 41
e 43 67
e 43 79
e 44 26
e 44 43
e 44 43
e 44 57
e 44 59
e 44 69
e 45 13
e 45 25
e 45 37
e 45 38
e 45 41
e 45 63
e 46 14
e 46 20
e 46 29
e 46 31
e 46 60
e 46 72
e 47 12
e 47 21
e 47 42
e 47 51
e 47 54
e 47 55
e 48 4
e 48 20
e 48 37
e 48 62
e 48 80
e 48 80
e 49 14
e 49 14
e 49 47
e 49 56
e 49 69
e 49 71
e 50 5
e 50 11
e 50 17
e 50 45
e 50 61
e 50 67
e 51 6
e 51 17
e 51 23
e 51 60
e 51 68
e 51 77
e 52 8
e 52 13
e 52 19
e 52 53
e 52 60
e 52 69
e 53 10
e 53 11
e 53 17
e 53 23
e 53 47
e 53 68
e 54 13
e 54 20
e 54 22
e 54 34
e 54 42
e 54 56
e 55 20
e 55 21
e 55 40
e 55 42
e 55 52
e 55 65
e 56 8
e 56 26
e 56 31
e 56 65
e 56 68
e 56 69
e 57 1
e 57 19
e 57 23
e 57 25
e 57 37
e 57 70
e 58 2
e 58 5
e 58 13
e 58 31
e 58 53
e 58 73
e 59 1
e 59 11
e 59 20
e 59 23
e 59 26
e 59 26
e 60 31
e 60 43
e 60 45
e 60 59
e 60 59
e 60 74
e 61 20
e 61 22
e 61 31
e 61 50
e 61 53
e 61 57
e 62 5
e 62 36
e 62 50
e 62 60
e 62 74
e 62 75
e 63 17
e 63 21
e 63 45
e 63 51
e 63 56
e 63 60
e 64 6
e 64 22
e 64 25
e 64 48
e 64 54
e 64 74
e 65 3
e 65 20
e 65 35
e 65 42
e 65 43
e 65 47
e 66 9
e 66 22
e 66 43
e 66 65
e 66 67
e 66 69
e 67 19
e 67 37
e 67 39
e 67 69
e 67 70
e 67 73
e 68 9
e 68 9
e 68 24
e 68 54
e 68 54
e 68 74
e 69 11
e 69 48
e 69 49
e 69 49
e 69 67
e 69 75
e 70 10
e 70 10
e 70 21
e 70 29
e 70 38
e 70 47
e 71 4
e 71 14
e 71 18
e 71 24
e 71 31
e 71 74
e 72 6
e 72 7
e 72 13
e 72 33
e 72 56
e 72 77
e 73 38
e 73 50
e 73 55
e 73 61
e 73 69
e 73 77
e 74 2
e 74 28
e 74 29
e 74 51
e 74 61
e 74 65
e 75 4
e 75 18
e 75 23
e 75 29
e 75 37
e 75 60
e 76 3
e 76 4
e 76 21
e 76 29
e 76 42
e 76 80
e 77 32
e 77 48
e 77 55
e 77 56
e 77 59
e 77 80
e 78 13
e 78 20
e 78 25
e 78 30
e 78 48
e 78 56
e 79 5
e 79 16
e 79 30
e 79 46
e 79 50
e 79 64
e 80 21
e 80 39
e 80 50
e 80 52
e 80 58
e 80 70
